# Solution for model GasLib-40
# Objective value = 3.0825850866553719e+01
loadshed[innode_1] 0
loadshed[innode_2] 0
loadshed[innode_3] 0
loadshed[innode_4] 0
loadshed[innode_5] 0
loadshed[innode_6] 0
loadshed[innode_7] 0
loadshed[innode_8] 0
loadshed[source_1] -1.4001657055630257e-01
loadshed[source_2] 2.3548493570029305e-02
loadshed[source_3] 3.1145698648695719e-01
loadshed[sink_1] 0
loadshed[sink_2] 0
loadshed[sink_3] 0
loadshed[sink_4] 0
loadshed[sink_5] 0
loadshed[sink_6] 0
loadshed[sink_7] 0
loadshed[sink_8] 0
loadshed[sink_9] 0
loadshed[sink_10] 0
loadshed[sink_11] 0
loadshed[sink_12] 1
loadshed[sink_13] 0
loadshed[sink_14] 0
loadshed[sink_15] 0
loadshed[sink_16] 0
loadshed[sink_17] 0
loadshed[sink_18] 0
loadshed[sink_19] 0
loadshed[sink_20] 7.0080098326916740e-01
loadshed[sink_21] 1.8409180857105975e-01
loadshed[sink_22] 0
loadshed[sink_23] 0
loadshed[sink_24] 0
loadshed[sink_25] 0
loadshed[sink_26] 0
loadshed[sink_27] 0
loadshed[sink_28] 0
loadshed[sink_29] 0
flow[source_1,sink_3] 1.8022553631051545e+02
flow[innode_1,sink_16] 1.6354166666666970e+01
flow[innode_6,sink_13] 5.6272103984421165e+00
flow[sink_13,sink_14] -1.0726956268224551e+01
flow[sink_14,sink_10] -2.7081122934891198e+01
flow[sink_25,sink_26] 2.1448664913344612e+02
flow[sink_26,sink_9] 1.9813248246677932e+02
flow[sink_9,sink_18] 1.8177831580011267e+02
flow[sink_26,sink_4] 0
flow[sink_4,sink_20] 2.3639187422793988e+00
flow[sink_18,sink_6] 165.424149133446
flow[sink_25,innode_8] -1.4751720297717907e+02
flow[sink_6,sink_7] 1.1636164913344601e+02
flow[sink_6,sink_22] 3.2708333333333641e+01
flow[sink_7,sink_24] 2.9697665213994124e+01
flow[sink_22,sink_1] 1.6354166666666970e+01
flow[sink_24,sink_21] 1.3343498547327462e+01
flow[sink_21,sink_12] 0
flow[sink_7,sink_5] 7.0309817252785493e+01
flow[sink_5,sink_17] 5.3955650586118821e+01
flow[sink_17,sink_4] 1.8718085408946081e+01
flow[sink_17,sink_8] 1.8883398510506083e+01
flow[sink_3,sink_23] 16.3541666666697
flow[sink_8,sink_20] 2.5292318438393977e+00
flow[sink_25,sink_20] 0
flow[sink_25,sink_15] -8.8950823221375686e+01
flow[sink_15,sink_29] -5.9170761061498638e+01
flow[sink_29,sink_28] 1.6354166666667879e+01
flow[sink_29,sink_2] 6.2488395493210419e+01
flow[sink_2,sink_15] 4.6134228826543790e+01
flow[sink_29,innode_7] -1.5436748988804362e+02
flow[innode_4,sink_19] 0
flow[sink_19,innode_3] 3.7157766590169615e+01
flow[innode_4,innode_5] 1.0885195626822514e+02
flow[sink_27,innode_5] -1.0885195626822514e+02
flow[sink_27,sink_19] 9.2497789601558466e+01
flow[sink_10,sink_11] 3.2708333333333641e+01
flow[sink_10,innode_2] -3.8985856344721867e+01
flow[sink_10,innode_3] -3.7157766590169615e+01
flow[innode_6,sink_25] -5.6272103984421165e+00
flow[sink_11,innode_1] 1.6354166666666970e+01
flow[sink_19,innode_2] 3.8985856344721867e+01
flow[source_3,innode_4] 1.0885195626822514e+02
flow[source_2,innode_7] 1.5436748988804362e+02
flow[sink_3,innode_8] 1.4751720297717907e+02
pressure[innode_1] 7.5836879254431139e+01
pressure[innode_2] 7.8049144086713440e+01
pressure[innode_3] 7.7966862420260142e+01
pressure[innode_4] 81.01325
pressure[innode_5] 8.0938375884697280e+01
pressure[innode_6] 7.4719506541620547e+01
pressure[innode_7] 81.01325
pressure[innode_8] 8.0410824880764309e+01
pressure[source_1] 81.01325
pressure[source_2] 81.01325
pressure[source_3] 81.01325
pressure[sink_1] 3.4658921179801879e+01
pressure[sink_2] 7.5301622799166964e+01
pressure[sink_3] 8.0410824880764309e+01
pressure[sink_4] 1.1866780705558748e+00
pressure[sink_5] 5.9213275399287131e+00
pressure[sink_6] 3.6759998790189250e+01
pressure[sink_7] 3.5162630711779137e+01
pressure[sink_8] 1.1895018902426611e+00
pressure[sink_9] 4.7754597362678268e+01
pressure[sink_10] 7.5988580562034684e+01
pressure[sink_11] 7.5836879254431139e+01
pressure[sink_12] 1.01325
pressure[sink_13] 7.4688484671088148e+01
pressure[sink_14] 7.4707681473064767e+01
pressure[sink_15] 7.5151004709868559e+01
pressure[sink_16] 7.4815229419613459e+01
pressure[sink_17] 1.9020215739070374e+00
pressure[sink_18] 4.1177316104471210e+01
pressure[sink_19] 7.8049144086713440e+01
pressure[sink_20] 1.01325
pressure[sink_21] 1.01325
pressure[sink_22] 3.5722690322156886e+01
pressure[sink_23] 8.0246106869104523e+01
pressure[sink_24] 1.1610168488229358e+00
pressure[sink_25] 7.4719506541620547e+01
pressure[sink_26] 5.9613337804175714e+01
pressure[sink_27] 8.0035105784459162e+01
pressure[sink_28] 7.6589242105824511e+01
pressure[sink_29] 76.8845243794417
interdiction[source_1,sink_3] 0
interdiction[innode_1,sink_16] 0
interdiction[innode_6,sink_13] 0
interdiction[sink_13,sink_14] 0
interdiction[sink_14,sink_10] 0
interdiction[sink_25,sink_26] 0
interdiction[sink_26,sink_9] 0
interdiction[sink_9,sink_18] 0
interdiction[sink_26,sink_4] 1
interdiction[sink_4,sink_20] 0
interdiction[sink_18,sink_6] 0
interdiction[sink_25,innode_8] 0
interdiction[sink_6,sink_7] 0
interdiction[sink_6,sink_22] 0
interdiction[sink_7,sink_24] 0
interdiction[sink_22,sink_1] 0
interdiction[sink_24,sink_21] 0
interdiction[sink_21,sink_12] 0
interdiction[sink_7,sink_5] 0
interdiction[sink_5,sink_17] 0
interdiction[sink_17,sink_4] 0
interdiction[sink_17,sink_8] 0
interdiction[sink_3,sink_23] 0
interdiction[sink_8,sink_20] 0
interdiction[sink_25,sink_20] 1
interdiction[sink_25,sink_15] 0
interdiction[sink_15,sink_29] 0
interdiction[sink_29,sink_28] 0
interdiction[sink_29,sink_2] 0
interdiction[sink_2,sink_15] 0
interdiction[sink_29,innode_7] 0
interdiction[innode_4,sink_19] 1
interdiction[sink_19,innode_3] 0
interdiction[innode_4,innode_5] 0
interdiction[sink_27,innode_5] 0
interdiction[sink_27,sink_19] 0
interdiction[sink_10,sink_11] 0
interdiction[sink_10,innode_2] 0
interdiction[sink_10,innode_3] 0
interdiction[innode_6,sink_25] 0
interdiction[sink_11,innode_1] 0
interdiction[sink_19,innode_2] 0
interdiction[source_3,innode_4] 0
interdiction[source_2,innode_7] 0
interdiction[sink_3,innode_8] 0
WCcheckFlow[source_1,sink_3] 39
WCcheckFlow[innode_1,sink_16] 1
WCcheckFlow[innode_6,sink_13] 13
WCcheckFlow[sink_13,sink_14] 12
WCcheckFlow[sink_14,sink_10] 11
WCcheckFlow[sink_25,sink_26] 15
WCcheckFlow[sink_26,sink_9] 14
WCcheckFlow[sink_9,sink_18] 13
WCcheckFlow[sink_26,sink_4] 0
WCcheckFlow[sink_4,sink_20] 1
WCcheckFlow[sink_18,sink_6] 12
WCcheckFlow[sink_25,innode_8] -36
WCcheckFlow[sink_6,sink_7] 9
WCcheckFlow[sink_6,sink_22] 2
WCcheckFlow[sink_7,sink_24] 3
WCcheckFlow[sink_22,sink_1] 1
WCcheckFlow[sink_24,sink_21] 2
WCcheckFlow[sink_21,sink_12] 1
WCcheckFlow[sink_7,sink_5] 5
WCcheckFlow[sink_5,sink_17] 4
WCcheckFlow[sink_17,sink_4] 2
WCcheckFlow[sink_17,sink_8] 1
WCcheckFlow[sink_3,sink_23] 1
WCcheckFlow[sink_8,sink_20] 0
WCcheckFlow[sink_25,sink_20] 0
WCcheckFlow[sink_25,sink_15] 6
WCcheckFlow[sink_15,sink_29] 5
WCcheckFlow[sink_29,sink_28] 1
WCcheckFlow[sink_29,sink_2] 1
WCcheckFlow[sink_2,sink_15] 0
WCcheckFlow[sink_29,innode_7] 2
WCcheckFlow[innode_4,sink_19] 0
WCcheckFlow[sink_19,innode_3] -5
WCcheckFlow[innode_4,innode_5] -2
WCcheckFlow[sink_27,innode_5] 3
WCcheckFlow[sink_27,sink_19] -4
WCcheckFlow[sink_10,sink_11] 3
WCcheckFlow[sink_10,innode_2] 1
WCcheckFlow[sink_10,innode_3] 6
WCcheckFlow[innode_6,sink_25] -14
WCcheckFlow[sink_11,innode_1] 2
WCcheckFlow[sink_19,innode_2] 0
WCcheckFlow[source_3,innode_4] -1
WCcheckFlow[source_2,innode_7] -1
WCcheckFlow[sink_3,innode_8] 37
